(declare-fun e () String)
(declare-fun c () String)
(declare-fun b () String)
(declare-fun d () String)
(declare-fun a () String)
(assert (= (str.++ a "age") (str.++ d "ad" e)))
(assert (= (str.++ b "deh") (str.++ "a" d)))
(assert (= (str.++ "ec" e) c))

(check-sat)
